predicate fzn_all_different_int(array [int] of var int: x);
predicate array_int_element_offset(var int: idx,array [int] of var int: x,var int: c,int: offset);
array [1..10] of int: X_INTRODUCED_10_ = [1,0,0,0,0,0,1,1,1,1];
array [1..2] of int: X_INTRODUCED_14_ = [1,1];
array [1..10] of int: X_INTRODUCED_31_ = [0,0,1,1,1,1,0,0,1,1];
array [1..3] of int: X_INTRODUCED_36_ = [1,1,1];
array [1..10] of int: X_INTRODUCED_51_ = [1,0,0,0,0,0,1,1,0,0];
array [1..10] of int: X_INTRODUCED_70_ = [1,1,0,0,1,1,0,0,0,0];
array [1..5] of int: X_INTRODUCED_77_ = [1,1,1,1,1];
array [1..10] of int: X_INTRODUCED_88_ = [0,0,1,1,0,0,0,0,0,0];
var 1..10: X_INTRODUCED_0_;
var 1..10: X_INTRODUCED_1_;
var 1..10: X_INTRODUCED_2_;
var 1..10: X_INTRODUCED_3_;
var 1..10: X_INTRODUCED_4_;
var 1..10: X_INTRODUCED_5_;
var 1..10: X_INTRODUCED_6_;
var 1..10: X_INTRODUCED_7_;
var 1..10: X_INTRODUCED_8_;
var 1..10: X_INTRODUCED_9_;
var 0..1: X_INTRODUCED_11_ ::var_is_introduced :: is_defined_var;
var 0..1: X_INTRODUCED_12_ ::var_is_introduced :: is_defined_var;
var 0..1: X_INTRODUCED_15_ ::var_is_introduced :: is_defined_var;
var 0..1: X_INTRODUCED_17_ ::var_is_introduced :: is_defined_var;
var 0..1: X_INTRODUCED_19_ ::var_is_introduced :: is_defined_var;
var 0..1: X_INTRODUCED_21_ ::var_is_introduced :: is_defined_var;
var 0..1: X_INTRODUCED_23_ ::var_is_introduced :: is_defined_var;
var 0..1: X_INTRODUCED_25_ ::var_is_introduced :: is_defined_var;
var 0..1: X_INTRODUCED_27_ ::var_is_introduced :: is_defined_var;
var 0..1: X_INTRODUCED_29_ ::var_is_introduced :: is_defined_var;
var 0..1: X_INTRODUCED_32_ ::var_is_introduced :: is_defined_var;
var 0..1: X_INTRODUCED_33_ ::var_is_introduced :: is_defined_var;
var 0..1: X_INTRODUCED_34_ ::var_is_introduced :: is_defined_var;
var 0..1: X_INTRODUCED_37_ ::var_is_introduced :: is_defined_var;
var 0..1: X_INTRODUCED_39_ ::var_is_introduced :: is_defined_var;
var 0..1: X_INTRODUCED_41_ ::var_is_introduced :: is_defined_var;
var 0..1: X_INTRODUCED_43_ ::var_is_introduced :: is_defined_var;
var 0..1: X_INTRODUCED_45_ ::var_is_introduced :: is_defined_var;
var 0..1: X_INTRODUCED_47_ ::var_is_introduced :: is_defined_var;
var 0..1: X_INTRODUCED_49_ ::var_is_introduced :: is_defined_var;
var 0..1: X_INTRODUCED_52_ ::var_is_introduced :: is_defined_var;
var 0..1: X_INTRODUCED_53_ ::var_is_introduced :: is_defined_var;
var 0..1: X_INTRODUCED_54_ ::var_is_introduced :: is_defined_var;
var 0..1: X_INTRODUCED_56_ ::var_is_introduced :: is_defined_var;
var 0..1: X_INTRODUCED_58_ ::var_is_introduced :: is_defined_var;
var 0..1: X_INTRODUCED_60_ ::var_is_introduced :: is_defined_var;
var 0..1: X_INTRODUCED_62_ ::var_is_introduced :: is_defined_var;
var 0..1: X_INTRODUCED_64_ ::var_is_introduced :: is_defined_var;
var 0..1: X_INTRODUCED_66_ ::var_is_introduced :: is_defined_var;
var 0..1: X_INTRODUCED_68_ ::var_is_introduced :: is_defined_var;
var 0..1: X_INTRODUCED_71_ ::var_is_introduced :: is_defined_var;
var 0..1: X_INTRODUCED_72_ ::var_is_introduced :: is_defined_var;
var 0..1: X_INTRODUCED_73_ ::var_is_introduced :: is_defined_var;
var 0..1: X_INTRODUCED_74_ ::var_is_introduced :: is_defined_var;
var 0..1: X_INTRODUCED_75_ ::var_is_introduced :: is_defined_var;
var 0..1: X_INTRODUCED_78_ ::var_is_introduced :: is_defined_var;
var 0..1: X_INTRODUCED_80_ ::var_is_introduced :: is_defined_var;
var 0..1: X_INTRODUCED_82_ ::var_is_introduced :: is_defined_var;
var 0..1: X_INTRODUCED_84_ ::var_is_introduced :: is_defined_var;
var 0..1: X_INTRODUCED_86_ ::var_is_introduced :: is_defined_var;
var 0..1: X_INTRODUCED_89_ ::var_is_introduced :: is_defined_var;
var 0..1: X_INTRODUCED_90_ ::var_is_introduced :: is_defined_var;
var 0..1: X_INTRODUCED_91_ ::var_is_introduced :: is_defined_var;
var 0..1: X_INTRODUCED_92_ ::var_is_introduced :: is_defined_var;
var 0..1: X_INTRODUCED_93_ ::var_is_introduced :: is_defined_var;
var 0..1: X_INTRODUCED_95_ ::var_is_introduced :: is_defined_var;
var 0..1: X_INTRODUCED_97_ ::var_is_introduced :: is_defined_var;
var 0..1: X_INTRODUCED_99_ ::var_is_introduced :: is_defined_var;
var 0..1: X_INTRODUCED_101_ ::var_is_introduced :: is_defined_var;
var 0..1: X_INTRODUCED_103_ ::var_is_introduced :: is_defined_var;
array [1..10] of var int: Sequence:: output_array([1..10]) = [X_INTRODUCED_0_,X_INTRODUCED_1_,X_INTRODUCED_2_,X_INTRODUCED_3_,X_INTRODUCED_4_,X_INTRODUCED_5_,X_INTRODUCED_6_,X_INTRODUCED_7_,X_INTRODUCED_8_,X_INTRODUCED_9_];
constraint fzn_all_different_int(Sequence);
constraint array_int_element_offset(X_INTRODUCED_0_,X_INTRODUCED_10_,X_INTRODUCED_11_,1);
constraint array_int_element_offset(X_INTRODUCED_1_,X_INTRODUCED_10_,X_INTRODUCED_12_,1);
constraint int_lin_le(X_INTRODUCED_14_,[X_INTRODUCED_11_,X_INTRODUCED_12_],1);
constraint array_int_element_offset(X_INTRODUCED_2_,X_INTRODUCED_10_,X_INTRODUCED_15_,1);
constraint int_lin_le(X_INTRODUCED_14_,[X_INTRODUCED_12_,X_INTRODUCED_15_],1);
constraint array_int_element_offset(X_INTRODUCED_3_,X_INTRODUCED_10_,X_INTRODUCED_17_,1);
constraint int_lin_le(X_INTRODUCED_14_,[X_INTRODUCED_15_,X_INTRODUCED_17_],1);
constraint array_int_element_offset(X_INTRODUCED_4_,X_INTRODUCED_10_,X_INTRODUCED_19_,1);
constraint int_lin_le(X_INTRODUCED_14_,[X_INTRODUCED_17_,X_INTRODUCED_19_],1);
constraint array_int_element_offset(X_INTRODUCED_5_,X_INTRODUCED_10_,X_INTRODUCED_21_,1);
constraint int_lin_le(X_INTRODUCED_14_,[X_INTRODUCED_19_,X_INTRODUCED_21_],1);
constraint array_int_element_offset(X_INTRODUCED_6_,X_INTRODUCED_10_,X_INTRODUCED_23_,1);
constraint int_lin_le(X_INTRODUCED_14_,[X_INTRODUCED_21_,X_INTRODUCED_23_],1);
constraint array_int_element_offset(X_INTRODUCED_7_,X_INTRODUCED_10_,X_INTRODUCED_25_,1);
constraint int_lin_le(X_INTRODUCED_14_,[X_INTRODUCED_23_,X_INTRODUCED_25_],1);
constraint array_int_element_offset(X_INTRODUCED_8_,X_INTRODUCED_10_,X_INTRODUCED_27_,1);
constraint int_lin_le(X_INTRODUCED_14_,[X_INTRODUCED_25_,X_INTRODUCED_27_],1);
constraint array_int_element_offset(X_INTRODUCED_9_,X_INTRODUCED_10_,X_INTRODUCED_29_,1);
constraint int_lin_le(X_INTRODUCED_14_,[X_INTRODUCED_27_,X_INTRODUCED_29_],1);
constraint array_int_element_offset(X_INTRODUCED_0_,X_INTRODUCED_31_,X_INTRODUCED_32_,1);
constraint array_int_element_offset(X_INTRODUCED_1_,X_INTRODUCED_31_,X_INTRODUCED_33_,1);
constraint array_int_element_offset(X_INTRODUCED_2_,X_INTRODUCED_31_,X_INTRODUCED_34_,1);
constraint int_lin_le(X_INTRODUCED_36_,[X_INTRODUCED_32_,X_INTRODUCED_33_,X_INTRODUCED_34_],2);
constraint array_int_element_offset(X_INTRODUCED_3_,X_INTRODUCED_31_,X_INTRODUCED_37_,1);
constraint int_lin_le(X_INTRODUCED_36_,[X_INTRODUCED_33_,X_INTRODUCED_34_,X_INTRODUCED_37_],2);
constraint array_int_element_offset(X_INTRODUCED_4_,X_INTRODUCED_31_,X_INTRODUCED_39_,1);
constraint int_lin_le(X_INTRODUCED_36_,[X_INTRODUCED_34_,X_INTRODUCED_37_,X_INTRODUCED_39_],2);
constraint array_int_element_offset(X_INTRODUCED_5_,X_INTRODUCED_31_,X_INTRODUCED_41_,1);
constraint int_lin_le(X_INTRODUCED_36_,[X_INTRODUCED_37_,X_INTRODUCED_39_,X_INTRODUCED_41_],2);
constraint array_int_element_offset(X_INTRODUCED_6_,X_INTRODUCED_31_,X_INTRODUCED_43_,1);
constraint int_lin_le(X_INTRODUCED_36_,[X_INTRODUCED_39_,X_INTRODUCED_41_,X_INTRODUCED_43_],2);
constraint array_int_element_offset(X_INTRODUCED_7_,X_INTRODUCED_31_,X_INTRODUCED_45_,1);
constraint int_lin_le(X_INTRODUCED_36_,[X_INTRODUCED_41_,X_INTRODUCED_43_,X_INTRODUCED_45_],2);
constraint array_int_element_offset(X_INTRODUCED_8_,X_INTRODUCED_31_,X_INTRODUCED_47_,1);
constraint int_lin_le(X_INTRODUCED_36_,[X_INTRODUCED_43_,X_INTRODUCED_45_,X_INTRODUCED_47_],2);
constraint array_int_element_offset(X_INTRODUCED_9_,X_INTRODUCED_31_,X_INTRODUCED_49_,1);
constraint int_lin_le(X_INTRODUCED_36_,[X_INTRODUCED_45_,X_INTRODUCED_47_,X_INTRODUCED_49_],2);
constraint array_int_element_offset(X_INTRODUCED_0_,X_INTRODUCED_51_,X_INTRODUCED_52_,1);
constraint array_int_element_offset(X_INTRODUCED_1_,X_INTRODUCED_51_,X_INTRODUCED_53_,1);
constraint array_int_element_offset(X_INTRODUCED_2_,X_INTRODUCED_51_,X_INTRODUCED_54_,1);
constraint int_lin_le(X_INTRODUCED_36_,[X_INTRODUCED_52_,X_INTRODUCED_53_,X_INTRODUCED_54_],1);
constraint array_int_element_offset(X_INTRODUCED_3_,X_INTRODUCED_51_,X_INTRODUCED_56_,1);
constraint int_lin_le(X_INTRODUCED_36_,[X_INTRODUCED_53_,X_INTRODUCED_54_,X_INTRODUCED_56_],1);
constraint array_int_element_offset(X_INTRODUCED_4_,X_INTRODUCED_51_,X_INTRODUCED_58_,1);
constraint int_lin_le(X_INTRODUCED_36_,[X_INTRODUCED_54_,X_INTRODUCED_56_,X_INTRODUCED_58_],1);
constraint array_int_element_offset(X_INTRODUCED_5_,X_INTRODUCED_51_,X_INTRODUCED_60_,1);
constraint int_lin_le(X_INTRODUCED_36_,[X_INTRODUCED_56_,X_INTRODUCED_58_,X_INTRODUCED_60_],1);
constraint array_int_element_offset(X_INTRODUCED_6_,X_INTRODUCED_51_,X_INTRODUCED_62_,1);
constraint int_lin_le(X_INTRODUCED_36_,[X_INTRODUCED_58_,X_INTRODUCED_60_,X_INTRODUCED_62_],1);
constraint array_int_element_offset(X_INTRODUCED_7_,X_INTRODUCED_51_,X_INTRODUCED_64_,1);
constraint int_lin_le(X_INTRODUCED_36_,[X_INTRODUCED_60_,X_INTRODUCED_62_,X_INTRODUCED_64_],1);
constraint array_int_element_offset(X_INTRODUCED_8_,X_INTRODUCED_51_,X_INTRODUCED_66_,1);
constraint int_lin_le(X_INTRODUCED_36_,[X_INTRODUCED_62_,X_INTRODUCED_64_,X_INTRODUCED_66_],1);
constraint array_int_element_offset(X_INTRODUCED_9_,X_INTRODUCED_51_,X_INTRODUCED_68_,1);
constraint int_lin_le(X_INTRODUCED_36_,[X_INTRODUCED_64_,X_INTRODUCED_66_,X_INTRODUCED_68_],1);
constraint array_int_element_offset(X_INTRODUCED_0_,X_INTRODUCED_70_,X_INTRODUCED_71_,1);
constraint array_int_element_offset(X_INTRODUCED_1_,X_INTRODUCED_70_,X_INTRODUCED_72_,1);
constraint array_int_element_offset(X_INTRODUCED_2_,X_INTRODUCED_70_,X_INTRODUCED_73_,1);
constraint array_int_element_offset(X_INTRODUCED_3_,X_INTRODUCED_70_,X_INTRODUCED_74_,1);
constraint array_int_element_offset(X_INTRODUCED_4_,X_INTRODUCED_70_,X_INTRODUCED_75_,1);
constraint int_lin_le(X_INTRODUCED_77_,[X_INTRODUCED_71_,X_INTRODUCED_72_,X_INTRODUCED_73_,X_INTRODUCED_74_,X_INTRODUCED_75_],2);
constraint array_int_element_offset(X_INTRODUCED_5_,X_INTRODUCED_70_,X_INTRODUCED_78_,1);
constraint int_lin_le(X_INTRODUCED_77_,[X_INTRODUCED_72_,X_INTRODUCED_73_,X_INTRODUCED_74_,X_INTRODUCED_75_,X_INTRODUCED_78_],2);
constraint array_int_element_offset(X_INTRODUCED_6_,X_INTRODUCED_70_,X_INTRODUCED_80_,1);
constraint int_lin_le(X_INTRODUCED_77_,[X_INTRODUCED_73_,X_INTRODUCED_74_,X_INTRODUCED_75_,X_INTRODUCED_78_,X_INTRODUCED_80_],2);
constraint array_int_element_offset(X_INTRODUCED_7_,X_INTRODUCED_70_,X_INTRODUCED_82_,1);
constraint int_lin_le(X_INTRODUCED_77_,[X_INTRODUCED_74_,X_INTRODUCED_75_,X_INTRODUCED_78_,X_INTRODUCED_80_,X_INTRODUCED_82_],2);
constraint array_int_element_offset(X_INTRODUCED_8_,X_INTRODUCED_70_,X_INTRODUCED_84_,1);
constraint int_lin_le(X_INTRODUCED_77_,[X_INTRODUCED_75_,X_INTRODUCED_78_,X_INTRODUCED_80_,X_INTRODUCED_82_,X_INTRODUCED_84_],2);
constraint array_int_element_offset(X_INTRODUCED_9_,X_INTRODUCED_70_,X_INTRODUCED_86_,1);
constraint int_lin_le(X_INTRODUCED_77_,[X_INTRODUCED_78_,X_INTRODUCED_80_,X_INTRODUCED_82_,X_INTRODUCED_84_,X_INTRODUCED_86_],2);
constraint array_int_element_offset(X_INTRODUCED_0_,X_INTRODUCED_88_,X_INTRODUCED_89_,1);
constraint array_int_element_offset(X_INTRODUCED_1_,X_INTRODUCED_88_,X_INTRODUCED_90_,1);
constraint array_int_element_offset(X_INTRODUCED_2_,X_INTRODUCED_88_,X_INTRODUCED_91_,1);
constraint array_int_element_offset(X_INTRODUCED_3_,X_INTRODUCED_88_,X_INTRODUCED_92_,1);
constraint array_int_element_offset(X_INTRODUCED_4_,X_INTRODUCED_88_,X_INTRODUCED_93_,1);
constraint int_lin_le(X_INTRODUCED_77_,[X_INTRODUCED_89_,X_INTRODUCED_90_,X_INTRODUCED_91_,X_INTRODUCED_92_,X_INTRODUCED_93_],1);
constraint array_int_element_offset(X_INTRODUCED_5_,X_INTRODUCED_88_,X_INTRODUCED_95_,1);
constraint int_lin_le(X_INTRODUCED_77_,[X_INTRODUCED_90_,X_INTRODUCED_91_,X_INTRODUCED_92_,X_INTRODUCED_93_,X_INTRODUCED_95_],1);
constraint array_int_element_offset(X_INTRODUCED_6_,X_INTRODUCED_88_,X_INTRODUCED_97_,1);
constraint int_lin_le(X_INTRODUCED_77_,[X_INTRODUCED_91_,X_INTRODUCED_92_,X_INTRODUCED_93_,X_INTRODUCED_95_,X_INTRODUCED_97_],1);
constraint array_int_element_offset(X_INTRODUCED_7_,X_INTRODUCED_88_,X_INTRODUCED_99_,1);
constraint int_lin_le(X_INTRODUCED_77_,[X_INTRODUCED_92_,X_INTRODUCED_93_,X_INTRODUCED_95_,X_INTRODUCED_97_,X_INTRODUCED_99_],1);
constraint array_int_element_offset(X_INTRODUCED_8_,X_INTRODUCED_88_,X_INTRODUCED_101_,1);
constraint int_lin_le(X_INTRODUCED_77_,[X_INTRODUCED_93_,X_INTRODUCED_95_,X_INTRODUCED_97_,X_INTRODUCED_99_,X_INTRODUCED_101_],1);
constraint array_int_element_offset(X_INTRODUCED_9_,X_INTRODUCED_88_,X_INTRODUCED_103_,1);
constraint int_lin_le(X_INTRODUCED_77_,[X_INTRODUCED_95_,X_INTRODUCED_97_,X_INTRODUCED_99_,X_INTRODUCED_101_,X_INTRODUCED_103_],1);
solve  satisfy;
